142557
41, 11, 85, 7, 60, 91, 79, 43, 102, 74, 24, 28, 27, 10, 59, 66, 44, 87, 58, 76, 89, 93, 1, 12, 80, 57, 9, 42, 81, 19, 68, 99, 72, 82, 51, 32, 35, 103, 4, 15, 61, 47, 14, 50, 26, 23, 92, 8, 106, 97, 55, 29, 98, 34, 83, 100, 84, 53, 48, 73, 18, 96, 63, 75, 20, 30, 5, 52, 65, 31, 13, 88, 69, 6, 46, 62, 22, 21, 17, 90, 64, 16, 56, 40, 77, 86, 25, 45, 2, 33, 39, 49, 37, 70, 94, 78, 3, 101, 105, 38, 104, 95, 71, 36, 54, 67
